Running HiGHS 1.14.0 (git hash: dcc25308d8): Copyright (c) 2026 under MIT licence terms
Command line parsed using CLI11 2.5.0: Copyright (c) 2017-2025 University of Cincinnati
LP mps_round_trip_8323 has 9 rows; 8 cols; 20 nonzeros
Coefficient ranges:
  Matrix  [1e+00, 1e+00]
  Cost    [1e-03, 1e-03]
  Bound   [0e+00, 0e+00]
  RHS     [1e+02, 6e+02]
Presolving model
9 rows, 8 cols, 20 nonzeros 0s
Dependent equations search running on 1 equations with time limit of 1000.00s
Dependent equations search removed 0 rows and 0 nonzeros in 0.00s (limit = 1000.00s)
9 rows, 8 cols, 20 nonzeros 0s
Presolve reductions: rows 9(-0); columns 8(-0); nonzeros 20(-0) - Not reduced
Problem not reduced by presolve: solving the LP
Using dual simplex solver
  Iteration        Objective     Infeasibilities num(sum)
          0     0.0000000000e+00 Pr: 5(1160) 0.0s
          4     0.0000000000e+00 Pr: 0(0) 0.0s

Model name          : mps_round_trip_8323
Model status        : Optimal
Simplex   iterations: 4
Objective value     :  0.0000000000e+00
P-D objective error :  0.0000000000e+00
HiGHS run time      :          0.00
